rsa_demo_benchmark_output/128/certs/0011.assert.smt2
; benchmark generated from python API
(set-info :status unknown)
(declare-fun p () Int)
(declare-fun q () Int)
(declare-fun n () Int)
(assert
 (= p 14942331120743095403))
(assert
 (= q 15609191182607025109))
(assert
 (= n 233237703177497672229175505994003473927))
(assert
 (= (* p q) n))
(assert
 (> p 1))
(assert
 (> q 1))
(check-sat)
